2646
1500000
996697
996697
996697
992326
992326
992326
992326
992326
992326
992326
992326
992326
992326
992326
992326
992326
992326
992326
992326
992326
992326
992326
992326
992290
992290
992290
992290
992290
992290
992290
992290
992290
992290
992290
992290
992290
992085
984974
984974
984974
984974
984974
984974
984974
984974
984974
984974
966713
959359
959359
959359
959359
959359
959359
959359
959359
959359
959359
959359
959359
957721
957721
957721
957721
956100
956100
956100
956100
956100
956100
953360
953360
953360
953360
953360
953360
947715
947715
947715
947715
947715
947715
947715
947715
944791
944791
944791
944791
944791
944791
944791
944791
944791
944791
944791
944791
944791
944791
944791
944791
944791
944791
944791
944791
943483
943483
943483
943483
943483
943483
943483
943483
943483
943483
943483
943483
943483
943483
941541
941541
941160
941160
941160
941160
941160
941160
937948
937948
937948
937948
937948
937948
937948
937948
937948
937948
937948
937948
932689
932689
932689
932689
932689
932689
932689
920493
920493
920493
920493
920493
920493
920493
920493
916167
916167
916167
916167
916167
916167
916167
916167
916167
916167
911663
911663
911663
911663
911663
911663
911663
911663
911663
911663
911663
911663
911663
911663
911663
911663
911663
911663
911663
907831
907831
906269
906269
906269
906269
906269
906269
906269
906269
906269
906269
906269
906269
906269
906269
906269
906269
906269
906269
906258
906258
906258
906258
906258
906258
906258
906258
906258
906258
906258
906258
906258
905202
905202
905202
905202
905202
905202
905202
905202
905202
905202
905081
905081
905081
905081
905081
905081
905081
905081
896445
896445
896445
896445
896445
896445
896445
896445
896445
896445
896445
896445
896445
896445
896445
896445
896445
896445
896445
896445
889340
889340
889340
889340
889340
889340
889340
889340
889340
889340
889340
889340
879609
879609
879609
879609
879609
879609
879609
879609
879609
879609
879609
879609
879609
875455
875455
875455
875455
875455
875455
875455
875455
875455
875455
875455
875455
875455
875455
875455
875455
875455
875455
875455
875455
874624
874624
874624
874624
874624
874624
874624
874624
874624
874624
874624
874624
874624
874624
874624
863663
863663
863663
863663
863663
863663
863663
863663
857387
857387
857387
857387
857387
857387
857387
857387
857387
857387
857387
857387
857387
857387
857387
857387
857387
854763
854763
854763
854763
854763
854763
854763
854763
854763
854763
854763
854763
854763
854763
854763
854763
854763
854763
854763
854763
851903
851903
851903
851903
851903
851903
851903
851903
851903
851903
851903
851903
851903
851903
851903
851903
851903
851903
851903
849694
849694
849694
849694
849694
839615
839615
839615
839615
839615
839615
839615
839615
839615
839615
839615
839615
835723
835723
835723
835723
835723
835723
835723
835723
835723
835723
835723
835723
835723
835723
835723
830198
830198
830198
830198
824021
824021
824021
824021
824021
824021
824021
824021
824021
824021
824021
824021
824021
824021
824021
824021
824021
824021
824021
817869
817869
817869
817869
817869
817869
817869
817869
817869
817869
817869
817869
817869
817499
817499
817499
817499
817499
817499
817499
817499
817499
817499
817499
817499
817499
817499
817499
816171
816171
816171
816171
816171
816171
816171
816171
816171
811515
811515
811515
811515
811515
811515
811515
811515
811515
807561
807561
807561
807561
804113
804113
804113
804113
804113
804113
804113
797626
797626
797626
797626
797626
797626
797626
797626
797626
797626
795908
795908
795908
795908
795908
795908
795908
795908
795908
794902
794902
794902
794902
794902
794902
794902
794902
794902
794902
794902
794902
794902
794902
794902
793654
793654
793654
790057
790057
790057
790057
790057
790057
790057
790057
790057
790057
790057
790057
790057
790057
790057
790057
790057
790057
790057
789737
789737
786334
786334
786334
786334
786334
786334
786334
786334
786334
786334
786334
786334
786334
786334
786334
786334
786334
785640
785640
785640
785640
785640
785640
785640
785640
785640
785640
785640
785640
785640
785640
785640
785640
785640
785640
785640
785640
782637
782637
782637
782637
782637
782637
782637
782637
782637
782392
782392
782392
782392
782392
782392
782392
777254
777254
777254
777254
777254
777254
777254
777254
772686
772686
772686
772686
772686
772686
772686
772686
772584
772114
772114
772114
772114
772114
772114
772114
772114
772114
772114
772114
772114
772114
772114
772114
772114
769455
762652
762652
762652
762652
762652
762652
762422
762422
762422
762422
762422
762422
762422
762422
762422
762422
762422
762422
762422
762422
762422
762422
762422
762422
762422
760320
760320
760320
760320
760320
757327
757327
753910
753910
753910
753910
753910
753910
753910
753910
753910
753910
753637
753637
745685
745685
745685
745685
745685
745685
745685
745685
745685
745685
745685
745685
745685
745685
745685
740169
740169
740169
740169
740169
740169
738639
738639
738639
736134
736134
736134
736134
736134
736134
736134
736134
736134
736134
735544
735544
735544
733108
733108
733108
733108
733108
733108
733108
733108
733108
733108
733108
733108
733108
733108
733108
733108
712872
712872
712872
712872
712872
712872
712872
712872
712872
712872
712872
712872
712872
712872
712872
712872
712872
712872
712046
712046
712046
712046
712046
712046
712046
712046
712046
712046
712046
712046
712046
712046
712046
712046
712046
712046
711403
711403
711403
711403
711403
711403
711403
711403
711403
711403
710943
710943
710943
710943
710943
710943
710943
710943
710943
710943
710943
710943
710943
710943
710943
710943
710943
710943
704751
704751
699981
699981
699981
699981
699981
699981
699981
699981
699981
699981
699981
699981
699981
699981
699378
699378
699378
699378
699378
699378
699378
699378
699378
699378
690507
690507
690507
690507
690507
690507
690507
690507
690507
690507
690507
690507
690507
690507
687580
687580
687580
687580
687580
687580
687580
687580
687580
687431
687431
687431
687431
687431
687431
687431
687431
687431
687431
687431
687431
687431
687431
687431
687431
687431
687431
686480
686480
686480
686480
686480
686480
686480
686480
686480
686480
686480
686480
686480
686480
686480
686480
686480
686480
686480
681986
681986
681986
681986
681986
681986
681888
681888
681888
681888
681888
681880
681880
681880
681880
681880
681880
681880
681880
681111
681111
681111
681111
681111
681111
681111
678655
678655
678655
678655
678655
678579
678579
678579
678579
678579
678579
677623
672182
672182
672182
672182
672182
672182
672182
672182
672182
672182
672182
671860
671860
671797
671797
671797
671797
671797
669970
669970
669970
669970
669970
669970
669970
669970
669970
669970
669970
669970
660668
660668
660668
660668
660668
660668
660668
660668
660668
660668
660668
660668
660668
660668
654198
654198
654198
654198
654198
654198
644125
635430
635430
635430
635430
635430
635430
635430
635430
635430
635430
635430
635430
635430
635430
635430
635430
634882
634882
634882
634882
634882
632710
632710
632710
632710
632710
632710
632710
632710
632710
632710
632710
632710
632710
632710
632710
632556
632556
630773
630773
630773
630773
630773
630773
630773
630773
630773
630773
630773
627003
626953
626953
626953
626953
626953
626953
626953
626953
626953
626953
626953
626953
625178
625178
625178
625178
625178
623901
623901
623901
623901
623901
623901
623901
623901
623901
623901
623901
623901
622823
622823
622823
622823
622823
622823
622823
622823
622823
622823
622615
622615
622615
622615
622038
622038
622038
622038
622038
622038
622038
622038
622038
622038
622038
622038
622038
622038
620402
620402
620402
620402
620402
620402
620402
620402
620402
620402
620402
620402
620402
620402
620148
620148
620148
619250
619250
619250
619250
619250
619250
619250
619250
619250
619250
619250
619250
619250
619250
619250
619250
618090
618090
618090
618090
618090
610940
609453
609453
609453
609453
609453
609453
609453
609419
609419
609419
609419
609419
609419
609419
609419
609419
609419
609419
609419
609419
607894
607894
607894
607894
607894
607894
607894
607894
607894
607894
607894
607894
607894
607894
605218
605218
605218
602517
602039
602039
602039
602039
602039
602039
602039
602039
602039
602039
602039
602039
602039
602039
602039
602039
602039
602039
594289
594289
594289
594289
594289
594289
594289
594289
594289
594289
594289
594289
594289
594289
594289
594289
594283
594283
594283
594283
594283
588443
588443
588443
588443
588443
588443
588443
588443
588443
588443
588443
588443
588443
588443
588443
588443
588443
584479
584479
584479
584479
584479
584479
584479
584479
584479
584479
584479
584479
584479
584479
564579
564579
564579
564579
564579
564579
564579
564579
564579
564579
564579
564579
564579
563820
563820
563820
563820
558983
558983
558983
558983
558983
558983
558983
558983
558983
558983
558983
558983
558983
558983
558983
558983
558983
552529
552529
552529
552529
552529
552529
552529
552529
552529
552529
552529
552529
549896
549896
549896
549896
549896
549896
549896
549344
549344
549344
549344
549344
546967
546967
546967
546967
546967
546967
546967
546967
546967
546967
546266
546266
546266
546266
546266
546266
546266
546266
546266
532283
532283
532283
532283
532283
532283
532283
532283
532283
532283
532283
532283
532283
532283
532283
532283
532283
532283
532283
532283
531806
531806
531806
531806
531806
531806
531806
531806
531806
525176
525176
525176
525176
525176
525176
525176
525176
525176
525176
525176
525176
525176
525176
525176
525176
525176
525176
525176
522218
522218
522218
522218
522218
516224
516224
516224
516224
516224
516224
516224
516224
516224
516224
516224
516224
516224
516224
516224
516224
512111
512111
512111
512111
512111
512111
512111
512111
512111
512111
512111
512111
512111
512111
508212
497428
497428
495374
495374
495374
491153
491153
491153
491153
491153
491153
491153
491153
491153
491153
491153
491153
491153
491153
491153
491153
490379
490379
490379
490379
490379
490379
490379
490379
490379
490379
490379
490379
485986
485986
485986
485986
485986
485986
485986
485986
485986
485986
485986
485986
485986
485986
485986
485986
485986
485986
481851
481851
481851
481851
481851
481851
481851
481851
481851
481851
481851
481851
481851
481851
481851
481851
481851
481851
481851
479961
479961
479961
479961
479961
479961
479961
479961
474741
474741
474741
474741
474741
474741
474741
474178
474178
474178
474178
474178
468280
468280
468280
468280
468280
468280
467601
467601
467601
467601
467601
467601
467601
467601
467601
467601
467601
467601
467601
467601
465281
465281
465281
465281
465281
465281
465281
464847
464847
461528
461528
461528
461528
461528
461528
461528
461528
461528
461528
461528
461528
461528
461528
461528
461528
461528
461528
461528
461528
456984
456984
450269
450269
450269
450269
450269
450269
450269
450269
450269
450269
450269
450269
450269
450269
450269
450269
450269
450269
450269
446085
446085
446085
446085
446085
446085
446085
446085
446085
446085
446085
446085
446085
442936
442936
442936
442936
442936
442936
442936
442936
442936
442936
442936
442936
442936
442936
442936
442936
442936
442936
442936
442936
438163
438163
438163
438163
438163
438163
438163
438163
438163
438163
433872
433872
433872
433872
433872
433872
433872
433872
433872
433872
433872
431711
431711
431711
431711
431711
431711
431711
431711
431711
431711
428916
428916
428916
428916
428916
428916
428916
428916
428916
428916
428916
428916
428916
428916
428916
428916
427547
427547
427547
427547
427547
427547
427547
427547
427547
427547
427547
427547
427547
427547
425696
425696
425696
425696
425696
425696
425696
425696
425696
425696
425696
425696
425696
425696
425696
425696
425696
425696
425696
425696
420672
420672
420672
420672
420672
420672
420672
420672
420672
420672
420672
418322
418322
418322
418322
418322
418322
418322
418322
418322
418322
418322
418322
418322
418322
418322
414326
414326
414326
414326
414326
414326
414326
414326
414326
414326
414326
414326
414326
414326
414326
414326
414326
414326
410891
410891
410891
410891
410891
410891
410891
410891
410891
410891
410147
410147
410147
410147
398750
398750
398750
398750
398750
398750
398750
398750
398750
398750
398750
398750
398750
398750
398750
398750
394404
394404
394404
394404
394404
394404
394404
394404
394404
394404
394404
394404
394404
394404
394404
394404
394404
392238
392238
392238
392238
392238
392238
392238
392238
392238
392238
392238
392238
386675
386675
386675
386675
386675
382377
382377
382377
382377
382377
382377
382377
382377
382377
382377
382377
382377
382377
381788
381788
381788
381788
381788
381788
381788
381788
381788
381788
381788
381788
381788
381788
381788
381788
381788
381788
381788
379052
379052
379052
379052
379052
379052
379052
361722
361722
361722
361722
361722
354528
354528
354528
354528
354528
354528
354528
354528
354528
354528
354528
354528
354528
354528
354528
354528
354528
354528
348266
348266
348266
341171
341171
341171
341171
341171
341171
341171
341171
341171
339675
339675
339675
339675
339675
339675
339675
339675
339675
339675
339675
339675
339675
339675
339675
339675
339675
339675
338942
338942
338942
338942
338942
338942
338942
338942
338942
338942
338942
338942
338942
338942
338942
338942
338942
338942
338942
328529
328529
328529
328529
328529
328529
328529
328529
328529
328529
328529
328529
328529
328529
328529
328529
328529
328529
328529
314609
314609
314609
314609
314609
314609
314609
314609
314609
314609
314609
314609
314609
314609
314609
314609
314609
314609
314609
314609
313709
313709
313709
313709
313709
311917
311917
311917
311917
311917
311917
311917
311917
311917
311917
311917
311917
311216
311216
311216
311216
311216
311216
311216
311216
311216
311216
311216
311216
311216
311216
311216
311216
311216
311216
310905
310905
310905
310905
310905
310905
310905
310905
310905
310905
310905
310905
310905
310905
310905
303225
303225
303225
303225
303225
298646
298646
298646
298646
298646
297000
297000
297000
297000
297000
297000
297000
297000
297000
297000
297000
295439
295439
295439
295129
295129
295129
295129
295129
295129
293840
293840
293840
293840
293840
284260
284260
284260
284260
284260
284260
284260
284260
284260
284260
284260
284260
284260
284260
284260
284260
282916
280520
280520
280520
280520
280520
280520
280520
280520
280520
280520
280520
280520
275368
275368
275368
274676
274676
274676
274676
274676
274676
274676
274676
274676
274676
274676
274676
255922
254394
254394
254394
254394
254394
254394
254394
254394
254394
254394
254394
254394
249097
249097
249097
249097
249097
249097
249097
243297
243297
243297
243297
243297
243297
243297
243297
243297
243297
243297
243297
243297
243297
243297
243297
241901
241901
241901
232736
232736
232736
232736
232736
232736
232736
232736
232736
232736
232736
232736
232736
232736
232736
232736
232736
232736
232660
232660
232660
232660
232660
232660
232660
232660
232660
232660
232660
226397
226397
226397
226397
226397
225005
225005
225005
225005
225005
225005
225005
225005
225005
225005
225005
225005
225005
225005
225005
225005
225005
225005
225005
225005
222388
222388
222388
222388
222388
222388
222388
222388
222388
222291
222291
222291
222291
222291
222291
222291
222291
222291
222291
222291
222291
222291
222291
222291
222291
222291
217998
217998
217998
217998
217998
217998
217998
217998
217998
217998
217998
217998
217998
217998
217998
213884
213884
213884
213884
213884
213884
213884
213884
213884
213884
210595
210595
210595
210595
210595
210595
210595
210595
210595
210595
210595
210595
210595
210595
210595
210520
197393
197393
197393
197393
197393
197393
197393
197393
197393
197393
197393
197393
197393
196183
196183
187012
187012
187012
187012
187012
187012
186331
186331
184589
184589
184589
184589
184589
184589
184589
184589
184589
184589
184589
184589
184589
184589
184589
184589
184589
184589
177244
177244
177244
177244
177244
177244
177244
177244
177244
177244
160678
160678
160678
160678
160678
160678
160678
160678
160678
160678
160678
160678
160678
160678
160678
160678
160678
160678
160678
159656
159656
159656
159656
159656
159656
159656
159656
159656
159656
159656
159656
159656
159656
159656
159656
157782
157782
157782
157782
157782
157782
157782
157782
157782
157782
157782
157782
157782
157782
157782
157782
157782
157782
155144
155144
155144
155144
155144
155144
155144
155144
155144
155144
155144
155144
155144
155144
155144
155144
155144
155144
155144
155144
153544
153544
153544
153544
153544
153544
153544
153544
153544
153544
153544
153544
153544
153544
140852
140852
140852
140852
140852
140852
140852
140852
140852
140852
140852
140852
140852
140852
139606
139606
139606
139606
139606
139606
139606
139606
111919
111919
111919
111919
111919
111919
107697
107697
107697
107697
107697
107697
107697
107697
107697
107697
107697
107697
105677
105677
105677
105677
105677
105677
90031
90031
90031
90031
90031
90031
90031
90031
90031
90031
90031
88594
88594
88594
88594
88594
76365
76365
76365
76365
76365
76365
76365
76365
76365
76365
76365
76365
76365
76365
76365
76365
69799
69799
69799
69799
69799
69799
69799
69799
69799
68662
68662
68662
68662
68662
68662
68662
68662
68662
68662
68662
68662
68662
68662
68662
68662
68662
64192
64192
64192
64192
64192
64192
64192
64192
64192
64192
64192
64192
64192
64192
64192
64192
59534
59534
59534
59534
59534
59534
59534
59534
59534
59534
59534
59534
51228
51228
51228
51228
51228
51228
51228
51228
51228
51228
51228
51228
51228
51228
51228
51228
51228
48136
48136
48136
44490
44490
44490
44490
44490
44490
44490
44490
44490
44490
44490
44490
44490
44490
44490
44490
44490
44490
44490
41917
41917
41917
41917
41917
41917
41917
41917
41917
41659
41659
41659
41659
41659
41659
41659
41659
41659
41659
41659
41659
41659
41659
41659
41659
41659
41659
41659
41659
40258
40258
40258
40258
40258
38659
38659
38659
38659
38659
38659
38659
38659
38659
38659
38659
38659
34241
34241
34241
34241
34241
34241
34241
34241
34241
34241
34241
34241
34241
34241
34241
34241
34241
32958
32958
32958
32958
32958
32958
32958
32958
32958
32958
32958
32958
32958
32958
32958
32958
32958
32958
32042
32042
32042
32042
32042
32042
30279
30279
30279
30279
30279
30279
30279
30279
30279
30279
20002
20002
20002
20002
20002
20002
15881
15881
15881
15881
15881
15881
15881
15881
15881
15881
15881
15881
15881
15881
15881
15881
15881
15881
15881
15881
14322
14322
14322
14322
14322
14322
14322
14322
